NAME : cvrp-A-G-200-15.949.tour
COMMENT : Length = 949
COMMENT : Found by LKH [Keld Helsgaun] Thu May 17 22:42:36 2018
TYPE : TOUR
DIMENSION : 31
TOUR_SECTION
1
13
15
5
21
26
18
28
23
19
24
20
31
22
9
8
12
10
6
16
29
25
30
7
11
14
3
2
4
27
17
-1
EOF
